experiment/data/lkh-res/Vrp-Set-P-n55/Vrp-Set-P-n55-lkh/3.lkh1.tour
NAME : 3.57859.tour
COMMENT : Length = 57859
COMMENT : Found by LKH-3 [Keld Helsgaun] Tue Apr  9 02:39:15 2024
TYPE : TOUR
DIMENSION : 61
TOUR_SECTION
1
11
32
26
51
19
25
50
4
45
61
27
39
12
15
54
36
8
57
18
41
33
10
40
13
56
5
28
53
47
35
59
9
20
55
14
16
21
38
6
30
46
58
7
34
2
23
43
42
44
24
17
52
60
3
29
22
37
48
49
31
-1
EOF
